<?xml version = "1.0" standalone="yes"?>
<!-- This file has been generated by DOcplex version 2.23.222  -->
<CPLEXSolution version="1.0">
 <header
   problemName="CVRP"
   objectiveValue="12384.3"
  />
 <variables>
  <variable name="x_0_2" index="1" value="1.00000"/>
  <variable name="x_0_4" index="3" value="1.00000"/>
  <variable name="x_0_5" index="4" value="1.00000"/>
  <variable name="x_0_7" index="6" value="1.00000"/>
  <variable name="x_0_8" index="7" value="1.00000"/>
  <variable name="x_0_9" index="8" value="1.00000"/>
  <variable name="x_0_13" index="12" value="1.00000"/>
  <variable name="x_0_16" index="15" value="1.00000"/>
  <variable name="x_0_17" index="16" value="1.00000"/>
  <variable name="x_0_18" index="17" value="1.00000"/>
  <variable name="x_0_19" index="18" value="1.00000"/>
  <variable name="x_1_11" index="34" value="1.00000"/>
  <variable name="x_2_15" index="62" value="1.00000"/>
  <variable name="x_3_10" index="81" value="1.00000"/>
  <variable name="x_4_0" index="96" value="1.00000"/>
  <variable name="x_5_24" index="143" value="1.00000"/>
  <variable name="x_6_22" index="165" value="1.00000"/>
  <variable name="x_7_6" index="174" value="1.00000"/>
  <variable name="x_8_23" index="214" value="1.00000"/>
  <variable name="x_9_1" index="217" value="1.00000"/>
  <variable name="x_10_0" index="240" value="1.00000"/>
  <variable name="x_11_0" index="264" value="1.00000"/>
  <variable name="x_12_0" index="288" value="1.00000"/>
  <variable name="x_13_0" index="312" value="1.00000"/>
  <variable name="x_14_0" index="336" value="1.00000"/>
  <variable name="x_15_0" index="360" value="1.00000"/>
  <variable name="x_16_21" index="404" value="1.00000"/>
  <variable name="x_17_0" index="408" value="1.00000"/>
  <variable name="x_18_14" index="446" value="1.00000"/>
  <variable name="x_19_12" index="468" value="1.00000"/>
  <variable name="x_20_3" index="483" value="1.00000"/>
  <variable name="x_21_20" index="524" value="1.00000"/>
  <variable name="x_22_0" index="528" value="1.00000"/>
  <variable name="x_23_0" index="552" value="1.00000"/>
  <variable name="x_24_0" index="576" value="1.00000"/>
  <variable name="u_1" index="600" value="13.00000"/>
  <variable name="u_2" index="601" value="20.00000"/>
  <variable name="u_3" index="602" value="55.00000"/>
  <variable name="u_4" index="603" value="63.00000"/>
  <variable name="u_5" index="604" value="10.00000"/>
  <variable name="u_6" index="605" value="30.00000"/>
  <variable name="u_7" index="606" value="26.00000"/>
  <variable name="u_8" index="607" value="49.00000"/>
  <variable name="u_9" index="608" value="9.00000"/>
  <variable name="u_10" index="609" value="63.00000"/>
  <variable name="u_11" index="610" value="63.00000"/>
  <variable name="u_12" index="611" value="63.00000"/>
  <variable name="u_13" index="612" value="63.00000"/>
  <variable name="u_14" index="613" value="63.00000"/>
  <variable name="u_15" index="614" value="63.00000"/>
  <variable name="u_16" index="615" value="11.00000"/>
  <variable name="u_17" index="616" value="63.00000"/>
  <variable name="u_18" index="617" value="10.00000"/>
  <variable name="u_19" index="618" value="52.00000"/>
  <variable name="u_20" index="619" value="16.00000"/>
  <variable name="u_21" index="620" value="15.00000"/>
  <variable name="u_22" index="621" value="50.00000"/>
  <variable name="u_23" index="622" value="63.00000"/>
  <variable name="u_24" index="623" value="63.00000"/>
 </variables>
</CPLEXSolution>
